NAME : amtsp
TYPE : ATSP
DIMENSION : 4
EDGE_WEIGHT_TYPE : EXPLICIT
EDGE_WEIGHT_FORMAT : FULL_MATRIX
EDGE_WEIGHT_SECTION
100000 -100000 100000 100000 
100000 100000 -263 -101 
0 0 100000 -331 
0 0 -331 100000 
